\ Generated by MPModelProtoExporter
\   Name             : 
\   Format           : Free
\   Constraints      : 7
\   Variables        : 20
\     Binary         : 0
\     Integer        : 20
\     Continuous     : 0
Maximize
 Obj: +1 저소득 +1 중간소득 +1 저소득_1 +1 중간소득_2 +1 저소득_3 +1 중간소득_4 +1 저소득_5 +1 중간소득_6 +1 저소득_7 +1 중간소득_8 +1 저소득_9 +1 중간소득_10 +1 저소득_11 +1 중간소득_12 +1 저소득_13 +1 중간소득_14 +1 저소득_15 +1 중간소득_16 +1 저소득_17 +1 중간소득_18 
Subject to
 auto_c_000000000: +1 저소득 +1 저소득_1 +1 저소득_3 +1 저소득_5 +1 저소득_7 +1 저소득_9 +1 저소득_11 +1 저소득_13 +1 저소득_15 +1 저소득_17  >= 60
 auto_c_000000001: +1 저소득 +1 저소득_1 +1 저소득_3 +1 저소득_5 +1 저소득_7 +1 저소득_9 +1 저소득_11 +1 저소득_13 +1 저소득_15 +1 저소득_17  <= 100
 auto_c_000000002: +1 중간소득 +1 중간소득_2 +1 중간소득_4 +1 중간소득_6 +1 중간소득_8 +1 중간소득_10 +1 중간소득_12 +1 중간소득_14 +1 중간소득_16 +1 중간소득_18  >= 30
 auto_c_000000003: +1 중간소득 +1 중간소득_2 +1 중간소득_4 +1 중간소득_6 +1 중간소득_8 +1 중간소득_10 +1 중간소득_12 +1 중간소득_14 +1 중간소득_16 +1 중간소득_18  <= 70
 auto_c_000000004: +1 저소득 +1 중간소득 +1 저소득_1 +1 중간소득_2 +1 저소득_3 +1 중간소득_4 +1 저소득_5 +1 중간소득_6 +1 저소득_7 +1 중간소득_8 +1 저소득_9 +1 중간소득_10 +1 저소득_11 +1 중간소득_12 +1 저소득_13 +1 중간소득_14 +1 저소득_15 +1 중간소득_16 +1 저소득_17 +1 중간소득_18  <= 150
 auto_c_000000005: +13000 저소득 +18000 중간소득 +13000 저소득_1 +18000 중간소득_2 +13000 저소득_3 +18000 중간소득_4 +13000 저소득_5 +18000 중간소득_6 +13000 저소득_7 +18000 중간소득_8 +13000 저소득_9 +18000 중간소득_10 +13000 저소득_11 +18000 중간소득_12 +13000 저소득_13 +18000 중간소득_14 +13000 저소득_15 +18000 중간소득_16 +13000 저소득_17 +18000 중간소득_18  <= 2e+06
 auto_c_000000006: -1 저소득 +0.5 중간소득 -1 저소득_1 +0.5 중간소득_2 -1 저소득_3 +0.5 중간소득_4 -1 저소득_5 +0.5 중간소득_6 -1 저소득_7 +0.5 중간소득_8 -1 저소득_9 +0.5 중간소득_10 -1 저소득_11 +0.5 중간소득_12 -1 저소득_13 +0.5 중간소득_14 -1 저소득_15 +0.5 중간소득_16 -1 저소득_17 +0.5 중간소득_18  <= -50
Bounds
 0 <= 저소득 <= 20
 0 <= 중간소득 <= 15
 0 <= 저소득_1 <= 20
 0 <= 중간소득_2 <= 15
 0 <= 저소득_3 <= 20
 0 <= 중간소득_4 <= 15
 0 <= 저소득_5 <= 20
 0 <= 중간소득_6 <= 15
 0 <= 저소득_7 <= 20
 0 <= 중간소득_8 <= 15
 0 <= 저소득_9 <= 20
 0 <= 중간소득_10 <= 15
 0 <= 저소득_11 <= 20
 0 <= 중간소득_12 <= 15
 0 <= 저소득_13 <= 20
 0 <= 중간소득_14 <= 15
 0 <= 저소득_15 <= 20
 0 <= 중간소득_16 <= 15
 0 <= 저소득_17 <= 20
 0 <= 중간소득_18 <= 15
Generals
 저소득
 중간소득
 저소득_1
 중간소득_2
 저소득_3
 중간소득_4
 저소득_5
 중간소득_6
 저소득_7
 중간소득_8
 저소득_9
 중간소득_10
 저소득_11
 중간소득_12
 저소득_13
 중간소득_14
 저소득_15
 중간소득_16
 저소득_17
 중간소득_18
End
